Version identifier: 22.1.0.0 | 2022-03-09 | 1a383f8ce
CPXPARAM_Threads                                 1
CPXPARAM_MIP_Strategy_VariableSelect             3
CPXPARAM_TimeLimit                               599.99634297900002
Found incumbent of value 0.000000 after 0.00 sec. (0.53 ticks)

Root node processing (before b&c):
  Real time             =    0.00 sec. (0.59 ticks)
Sequential b&c:
  Real time             =    0.00 sec. (0.00 ticks)
                          ------------
Total (root+branch&cut) =    0.00 sec. (0.59 ticks)
Version identifier: 22.1.0.0 | 2022-03-09 | 1a383f8ce
CPXPARAM_Threads                                 1
CPXPARAM_MIP_Strategy_VariableSelect             3
CPXPARAM_TimeLimit                               599.96808616700002
Tried aggregator 1 time.
MIP Presolve eliminated 17 rows and 0 columns.
MIP Presolve modified 5 coefficients.
Reduced MIP has 1364 rows, 5650 columns, and 77142 nonzeros.
Reduced MIP has 5650 binaries, 0 generals, 0 SOSs, and 0 indicators.
Presolve time = 0.04 sec. (29.38 ticks)
Found incumbent of value 0.000000 after 0.13 sec. (92.25 ticks)

Root node processing (before b&c):
  Real time             =    0.13 sec. (92.46 ticks)
Sequential b&c:
  Real time             =    0.00 sec. (0.00 ticks)
                          ------------
Total (root+branch&cut) =    0.13 sec. (92.46 ticks)
Version identifier: 22.1.0.0 | 2022-03-09 | 1a383f8ce
CPXPARAM_Threads                                 1
CPXPARAM_MIP_Strategy_VariableSelect             3
CPXPARAM_TimeLimit                               599.79843118600002
Tried aggregator 1 time.
MIP Presolve eliminated 17 rows and 0 columns.
MIP Presolve modified 5 coefficients.
Reduced MIP has 1586 rows, 6575 columns, and 89944 nonzeros.
Reduced MIP has 6575 binaries, 0 generals, 0 SOSs, and 0 indicators.
Presolve time = 0.04 sec. (34.09 ticks)
Found incumbent of value 0.000000 after 0.15 sec. (104.10 ticks)

Root node processing (before b&c):
  Real time             =    0.15 sec. (104.36 ticks)
Sequential b&c:
  Real time             =    0.00 sec. (0.00 ticks)
                          ------------
Total (root+branch&cut) =    0.15 sec. (104.36 ticks)
Version identifier: 22.1.0.0 | 2022-03-09 | 1a383f8ce
CPXPARAM_Threads                                 1
CPXPARAM_MIP_Strategy_VariableSelect             3
CPXPARAM_TimeLimit                               599.60555348100002
Tried aggregator 1 time.
MIP Presolve eliminated 17 rows and 0 columns.
MIP Presolve modified 2 coefficients.
Reduced MIP has 1700 rows, 7050 columns, and 96518 nonzeros.
Reduced MIP has 7050 binaries, 0 generals, 0 SOSs, and 0 indicators.
Presolve time = 0.05 sec. (36.31 ticks)
Found incumbent of value 0.000000 after 0.16 sec. (112.07 ticks)

Root node processing (before b&c):
  Real time             =    0.16 sec. (112.34 ticks)
Sequential b&c:
  Real time             =    0.00 sec. (0.00 ticks)
                          ------------
Total (root+branch&cut) =    0.16 sec. (112.34 ticks)
Version identifier: 22.1.0.0 | 2022-03-09 | 1a383f8ce
CPXPARAM_Threads                                 1
CPXPARAM_MIP_Strategy_VariableSelect             3
CPXPARAM_TimeLimit                               599.39824101900001
Tried aggregator 1 time.
MIP Presolve eliminated 17 rows and 0 columns.
MIP Presolve modified 2 coefficients.
Reduced MIP has 1754 rows, 7275 columns, and 99632 nonzeros.
Reduced MIP has 7275 binaries, 0 generals, 0 SOSs, and 0 indicators.
Presolve time = 0.05 sec. (37.46 ticks)
Found incumbent of value 0.000000 after 0.17 sec. (118.67 ticks)

Root node processing (before b&c):
  Real time             =    0.17 sec. (118.96 ticks)
Sequential b&c:
  Real time             =    0.00 sec. (0.00 ticks)
                          ------------
Total (root+branch&cut) =    0.17 sec. (118.96 ticks)
Version identifier: 22.1.0.0 | 2022-03-09 | 1a383f8ce
CPXPARAM_Threads                                 1
CPXPARAM_MIP_Strategy_VariableSelect             3
CPXPARAM_TimeLimit                               599.17927667399999
Tried aggregator 1 time.
MIP Presolve eliminated 17 rows and 0 columns.
MIP Presolve modified 2 coefficients.
Reduced MIP has 1784 rows, 7400 columns, and 101362 nonzeros.
Reduced MIP has 7400 binaries, 0 generals, 0 SOSs, and 0 indicators.
Presolve time = 0.05 sec. (38.08 ticks)
Found incumbent of value 0.000000 after 0.17 sec. (117.69 ticks)

Root node processing (before b&c):
  Real time             =    0.17 sec. (117.98 ticks)
Sequential b&c:
  Real time             =    0.00 sec. (0.00 ticks)
                          ------------
Total (root+branch&cut) =    0.17 sec. (117.98 ticks)
Version identifier: 22.1.0.0 | 2022-03-09 | 1a383f8ce
CPXPARAM_Threads                                 1
CPXPARAM_MIP_Strategy_VariableSelect             3
CPXPARAM_TimeLimit                               598.96152040499999
Tried aggregator 1 time.
MIP Presolve eliminated 17 rows and 0 columns.
MIP Presolve modified 2 coefficients.
Reduced MIP has 1796 rows, 7450 columns, and 102054 nonzeros.
Reduced MIP has 7450 binaries, 0 generals, 0 SOSs, and 0 indicators.
Presolve time = 0.05 sec. (38.34 ticks)
Found incumbent of value 0.000000 after 0.17 sec. (119.29 ticks)

Root node processing (before b&c):
  Real time             =    0.17 sec. (119.58 ticks)
Sequential b&c:
  Real time             =    0.00 sec. (0.00 ticks)
                          ------------
Total (root+branch&cut) =    0.17 sec. (119.58 ticks)
Version identifier: 22.1.0.0 | 2022-03-09 | 1a383f8ce
CPXPARAM_Threads                                 1
CPXPARAM_MIP_Strategy_VariableSelect             3
CPXPARAM_TimeLimit                               598.73993665700004
Tried aggregator 1 time.
MIP Presolve eliminated 17 rows and 0 columns.
MIP Presolve modified 2 coefficients.
Reduced MIP has 1802 rows, 7475 columns, and 102400 nonzeros.
Reduced MIP has 7475 binaries, 0 generals, 0 SOSs, and 0 indicators.
Presolve time = 0.05 sec. (38.46 ticks)
Found incumbent of value 0.000000 after 0.18 sec. (122.42 ticks)

Root node processing (before b&c):
  Real time             =    0.18 sec. (122.71 ticks)
Sequential b&c:
  Real time             =    0.00 sec. (0.00 ticks)
                          ------------
Total (root+branch&cut) =    0.18 sec. (122.71 ticks)
Version identifier: 22.1.0.0 | 2022-03-09 | 1a383f8ce
CPXPARAM_Threads                                 1
CPXPARAM_MIP_Strategy_VariableSelect             3
CPXPARAM_TimeLimit                               598.51425348600003
Tried aggregator 1 time.
MIP Presolve eliminated 17 rows and 0 columns.
MIP Presolve modified 2 coefficients.
Reduced MIP has 1808 rows, 7500 columns, and 102746 nonzeros.
Reduced MIP has 7500 binaries, 0 generals, 0 SOSs, and 0 indicators.
Presolve time = 0.05 sec. (38.60 ticks)
Found incumbent of value 0.000000 after 0.17 sec. (120.69 ticks)

Root node processing (before b&c):
  Real time             =    0.17 sec. (120.98 ticks)
Sequential b&c:
  Real time             =    0.00 sec. (0.00 ticks)
                          ------------
Total (root+branch&cut) =    0.17 sec. (120.98 ticks)
Primal:	300
Dual:	300
Status:	Optimal
Time:	1.70181
Sequence:
	8
	15
	3
	5
	3
	23
	8
	1
	4
	3
	6
	0
	6
	17
	10
	4
	8
	17
	6
	13
	16
	4
	4
	0
	1
	9
	22
	4
	12
	14
	21
	4
	0
	6
	1
	23
	3
	5
	1
	20
	21
	3
	13
	6
	1
	16
	24
	3
	9
	16
	4
	22
	24
	3
	5
	9
	1
	6
	0
	5
	20
	16
	6
	23
	20
	7
	16
	18
	5
	12
	12
	0
	20
	0
	14
	3
	21
	16
	23
	3
	0
	18
	8
	6
	1
	16
	21
	12
	2
	0
	6
	1
	22
	3
	15
	21
	11
	6
	11
	15
	6
	13
	13
	9
	6
	9
	24
	6
	2
	4
	16
	3
	0
	16
	9
	3
	16
	12
	3
	21
	24
	4
	12
	16
	1
	12
	16
	0
	5
	6
	6
	21
	9
	20
	9
	7
	14
	1
	22
	3
	20
	21
	3
	3
	18
	6
	23
	4
	11
	16
	5
	20
	22
	20
	4
	0
	21
	3
	15
	13
	6
	0
	11
	6
	6
	11
	12
	5
	11
	6
	3
	6
	16
	8
	4
	17
	5
	22
	17
	8
	4
	9
	0
	21
	20
	1
	21
	13
	12
	6
	8
	4
	19
	17
	13
	20
	0
	16
	2
	6
	15
	5
	12
	0
	3
	9
	15
	16
	3
	23
	20
	4
	13
	9
	6
	10
	18
	13
	6
	22
	16
	13
	10
	16
	16
	21
	20
	16
	6
	8
	3
	4
	20
	10
	12
	14
	6
	14
	15
	8
	0
	0
	9
	10
	21
	3
	11
	1
	20
	0
	13
	3
	7
	17
	5
	7
	3
	8
	6
	10
	13
	21
	20
	0
	0
	6
	5
	12
	0
	9
	10
	6
	24
	3
	2
	3
	22
	20
	3
	6
	14
	20
	12
	21
	17
	12
	24
	1
	6
	12
	17
	16
	14
	13
	20
	7
	15
	17
	9
	22
